p cnf 1676
-22 -526
-23 -529
-24 -532
-25 -535
-26 -538
-27 -541
-28 -544
-29 -547
-30 -550
-31 -553
-32 -556
-33 -559
-34 -562
-35 -565
-36 -568
-37 -571
-38 -574
-39 -577
-40 -580
-41 -583
-42 -586
-43 587
-44 588
-45 589
-46 590
-47 591
-48 592
-49 593
-50 594
-51 595
-52 596
-53 597
-54 598
-55 599
-56 600
-57 601
-58 602
-59 -23
-59 -24
23 24 59
-60 -25
-60 -26
25 26 60
-61 -27
-61 -28
27 28 61
-62 -29
-62 -30
29 30 62
-63 -31
-63 -32
31 32 63
-64 -33
-64 -34
33 34 64
-65 -35
-65 -36
35 36 65
-66 -37
-66 -38
37 38 66
-67 -39
-67 -40
39 40 67
-68 -41
-68 -42
41 42 68
-69 -43
-69 -44
43 44 69
-70 -45
-70 -46
45 46 70
-71 -47
-71 -48
47 48 71
-72 -49
-72 -50
49 50 72
-73 -51
-73 -52
51 52 73
-74 -53
-74 -54
53 54 74
-75 -55
-75 -56
55 56 75
-76 -57
-76 -58
57 58 76
-77 59
-77 60
-59 -60 77
-78 61
-78 62
-61 -62 78
-79 63
-79 64
-63 -64 79
-80 65
-80 66
-65 -66 80
-81 67
-81 68
-67 -68 81
-82 69
-82 70
-69 -70 82
-83 71
-83 72
-71 -72 83
-84 73
-84 74
-73 -74 84
-85 75
-85 76
-75 -76 85
-86 77
-86 78
-77 -78 86
-87 79
-87 80
-79 -80 87
-88 81
-88 82
-81 -82 88
-89 83
-89 84
-83 -84 89
-90 86
-90 87
-86 -87 90
-91 88
-91 89
-88 -89 91
-92 90
-92 91
-90 -91 92
-93 85
-93 92
-85 -92 93
-94 -22
-94 23
22 -23 94
-95 22
-95 -23
-22 23 95
-96 -94
-96 -95
94 95 96
-97 22
-97 23
-22 -23 97
-98 -22
-98 -96
22 96 98
-99 22
-99 96
-22 -96 99
-100 -98
-100 -99
98 99 100
-101 22
-101 -96
-22 96 101
-102 -97
-102 -101
97 101 102
-103 -23
-103 24
23 -24 103
-104 23
-104 -24
-23 24 104
-105 -103
-105 -104
103 104 105
-106 23
-106 24
-23 -24 106
-107 102
-107 -105
-102 105 107
-108 -102
-108 105
102 -105 108
-109 -107
-109 -108
107 108 109
-110 -102
-110 -105
102 105 110
-111 -106
-111 -110
106 110 111
-112 -24
-112 25
24 -25 112
-113 24
-113 -25
-24 25 113
-114 -112
-114 -113
112 113 114
-115 24
-115 25
-24 -25 115
-116 111
-116 -114
-111 114 116
-117 -111
-117 114
111 -114 117
-118 -116
-118 -117
116 117 118
-119 -111
-119 -114
111 114 119
-120 -115
-120 -119
115 119 120
-121 -25
-121 26
25 -26 121
-122 25
-122 -26
-25 26 122
-123 -121
-123 -122
121 122 123
-124 25
-124 26
-25 -26 124
-125 120
-125 -123
-120 123 125
-126 -120
-126 123
120 -123 126
-127 -125
-127 -126
125 126 127
-128 -120
-128 -123
120 123 128
-129 -124
-129 -128
124 128 129
-130 -26
-130 27
26 -27 130
-131 26
-131 -27
-26 27 131
-132 -130
-132 -131
130 131 132
-133 26
-133 27
-26 -27 133
-134 129
-134 -132
-129 132 134
-135 -129
-135 132
129 -132 135
-136 -134
-136 -135
134 135 136
-137 -129
-137 -132
129 132 137
-138 -133
-138 -137
133 137 138
-139 -27
-139 28
27 -28 139
-140 27
-140 -28
-27 28 140
-141 -139
-141 -140
139 140 141
-142 27
-142 28
-27 -28 142
-143 138
-143 -141
-138 141 143
-144 -138
-144 141
138 -141 144
-145 -143
-145 -144
143 144 145
-146 -138
-146 -141
138 141 146
-147 -142
-147 -146
142 146 147
-148 -28
-148 29
28 -29 148
-149 28
-149 -29
-28 29 149
-150 -148
-150 -149
148 149 150
-151 28
-151 29
-28 -29 151
-152 147
-152 -150
-147 150 152
-153 -147
-153 150
147 -150 153
-154 -152
-154 -153
152 153 154
-155 -147
-155 -150
147 150 155
-156 -151
-156 -155
151 155 156
-157 -29
-157 30
29 -30 157
-158 29
-158 -30
-29 30 158
-159 -157
-159 -158
157 158 159
-160 29
-160 30
-29 -30 160
-161 156
-161 -159
-156 159 161
-162 -156
-162 159
156 -159 162
-163 -161
-163 -162
161 162 163
-164 -156
-164 -159
156 159 164
-165 -160
-165 -164
160 164 165
-166 -30
-166 31
30 -31 166
-167 30
-167 -31
-30 31 167
-168 -166
-168 -167
166 167 168
-169 30
-169 31
-30 -31 169
-170 165
-170 -168
-165 168 170
-171 -165
-171 168
165 -168 171
-172 -170
-172 -171
170 171 172
-173 -165
-173 -168
165 168 173
-174 -169
-174 -173
169 173 174
-175 -31
-175 32
31 -32 175
-176 31
-176 -32
-31 32 176
-177 -175
-177 -176
175 176 177
-178 31
-178 32
-31 -32 178
-179 174
-179 -177
-174 177 179
-180 -174
-180 177
174 -177 180
-181 -179
-181 -180
179 180 181
-182 -174
-182 -177
174 177 182
-183 -178
-183 -182
178 182 183
-184 -32
-184 33
32 -33 184
-185 32
-185 -33
-32 33 185
-186 -184
-186 -185
184 185 186
-187 32
-187 33
-32 -33 187
-188 183
-188 -186
-183 186 188
-189 -183
-189 186
183 -186 189
-190 -188
-190 -189
188 189 190
-191 -183
-191 -186
183 186 191
-192 -187
-192 -191
187 191 192
-193 -33
-193 34
33 -34 193
-194 33
-194 -34
-33 34 194
-195 -193
-195 -194
193 194 195
-196 33
-196 34
-33 -34 196
-197 192
-197 -195
-192 195 197
-198 -192
-198 195
192 -195 198
-199 -197
-199 -198
197 198 199
-200 -192
-200 -195
192 195 200
-201 -196
-201 -200
196 200 201
-202 -34
-202 35
34 -35 202
-203 34
-203 -35
-34 35 203
-204 -202
-204 -203
202 203 204
-205 34
-205 35
-34 -35 205
-206 201
-206 -204
-201 204 206
-207 -201
-207 204
201 -204 207
-208 -206
-208 -207
206 207 208
-209 -201
-209 -204
201 204 209
-210 -205
-210 -209
205 209 210
-211 -35
-211 36
35 -36 211
-212 35
-212 -36
-35 36 212
-213 -211
-213 -212
211 212 213
-214 35
-214 36
-35 -36 214
-215 210
-215 -213
-210 213 215
-216 -210
-216 213
210 -213 216
-217 -215
-217 -216
215 216 217
-218 -210
-218 -213
210 213 218
-219 -214
-219 -218
214 218 219
-220 -36
-220 37
36 -37 220
-221 36
-221 -37
-36 37 221
-222 -220
-222 -221
220 221 222
-223 36
-223 37
-36 -37 223
-224 219
-224 -222
-219 222 224
-225 -219
-225 222
219 -222 225
-226 -224
-226 -225
224 225 226
-227 -219
-227 -222
219 222 227
-228 -223
-228 -227
223 227 228
-229 -37
-229 38
37 -38 229
-230 37
-230 -38
-37 38 230
-231 -229
-231 -230
229 230 231
-232 37
-232 38
-37 -38 232
-233 228
-233 -231
-228 231 233
-234 -228
-234 231
228 -231 234
-235 -233
-235 -234
233 234 235
-236 -228
-236 -231
228 231 236
-237 -232
-237 -236
232 236 237
-238 -38
-238 39
38 -39 238
-239 38
-239 -39
-38 39 239
-240 -238
-240 -239
238 239 240
-241 38
-241 39
-38 -39 241
-242 237
-242 -240
-237 240 242
-243 -237
-243 240
237 -240 243
-244 -242
-244 -243
242 243 244
-245 -237
-245 -240
237 240 245
-246 -241
-246 -245
241 245 246
-247 -39
-247 40
39 -40 247
-248 39
-248 -40
-39 40 248
-249 -247
-249 -248
247 248 249
-250 39
-250 40
-39 -40 250
-251 246
-251 -249
-246 249 251
-252 -246
-252 249
246 -249 252
-253 -251
-253 -252
251 252 253
-254 -246
-254 -249
246 249 254
-255 -250
-255 -254
250 254 255
-256 -40
-256 41
40 -41 256
-257 40
-257 -41
-40 41 257
-258 -256
-258 -257
256 257 258
-259 40
-259 41
-40 -41 259
-260 255
-260 -258
-255 258 260
-261 -255
-261 258
255 -258 261
-262 -260
-262 -261
260 261 262
-263 -255
-263 -258
255 258 263
-264 -259
-264 -263
259 263 264
-265 -41
-265 42
41 -42 265
-266 41
-266 -42
-41 42 266
-267 -265
-267 -266
265 266 267
-268 41
-268 42
-41 -42 268
-269 264
-269 -267
-264 267 269
-270 -264
-270 267
264 -267 270
-271 -269
-271 -270
269 270 271
-272 -264
-272 -267
264 267 272
-273 -268
-273 -272
268 272 273
-274 -42
-274 43
42 -43 274
-275 42
-275 -43
-42 43 275
-276 -274
-276 -275
274 275 276
-277 42
-277 43
-42 -43 277
-278 273
-278 -276
-273 276 278
-279 -273
-279 276
273 -276 279
-280 -278
-280 -279
278 279 280
-281 -273
-281 -276
273 276 281
-282 -277
-282 -281
277 281 282
-283 -43
-283 44
43 -44 283
-284 43
-284 -44
-43 44 284
-285 -283
-285 -284
283 284 285
-286 43
-286 44
-43 -44 286
-287 282
-287 -285
-282 285 287
-288 -282
-288 285
282 -285 288
-289 -287
-289 -288
287 288 289
-290 -282
-290 -285
282 285 290
-291 -286
-291 -290
286 290 291
-292 -44
-292 45
44 -45 292
-293 44
-293 -45
-44 45 293
-294 -292
-294 -293
292 293 294
-295 44
-295 45
-44 -45 295
-296 291
-296 -294
-291 294 296
-297 -291
-297 294
291 -294 297
-298 -296
-298 -297
296 297 298
-299 -291
-299 -294
291 294 299
-300 -295
-300 -299
295 299 300
-301 -45
-301 46
45 -46 301
-302 45
-302 -46
-45 46 302
-303 -301
-303 -302
301 302 303
-304 45
-304 46
-45 -46 304
-305 300
-305 -303
-300 303 305
-306 -300
-306 303
300 -303 306
-307 -305
-307 -306
305 306 307
-308 -300
-308 -303
300 303 308
-309 -304
-309 -308
304 308 309
-310 -46
-310 47
46 -47 310
-311 46
-311 -47
-46 47 311
-312 -310
-312 -311
310 311 312
-313 46
-313 47
-46 -47 313
-314 309
-314 -312
-309 312 314
-315 -309
-315 312
309 -312 315
-316 -314
-316 -315
314 315 316
-317 -309
-317 -312
309 312 317
-318 -313
-318 -317
313 317 318
-319 -47
-319 48
47 -48 319
-320 47
-320 -48
-47 48 320
-321 -319
-321 -320
319 320 321
-322 47
-322 48
-47 -48 322
-323 318
-323 -321
-318 321 323
-324 -318
-324 321
318 -321 324
-325 -323
-325 -324
323 324 325
-326 -318
-326 -321
318 321 326
-327 -322
-327 -326
322 326 327
-328 -48
-328 49
48 -49 328
-329 48
-329 -49
-48 49 329
-330 -328
-330 -329
328 329 330
-331 48
-331 49
-48 -49 331
-332 327
-332 -330
-327 330 332
-333 -327
-333 330
327 -330 333
-334 -332
-334 -333
332 333 334
-335 -327
-335 -330
327 330 335
-336 -331
-336 -335
331 335 336
-337 -49
-337 50
49 -50 337
-338 49
-338 -50
-49 50 338
-339 -337
-339 -338
337 338 339
-340 49
-340 50
-49 -50 340
-341 336
-341 -339
-336 339 341
-342 -336
-342 339
336 -339 342
-343 -341
-343 -342
341 342 343
-344 -336
-344 -339
336 339 344
-345 -340
-345 -344
340 344 345
-346 -50
-346 51
50 -51 346
-347 50
-347 -51
-50 51 347
-348 -346
-348 -347
346 347 348
-349 50
-349 51
-50 -51 349
-350 345
-350 -348
-345 348 350
-351 -345
-351 348
345 -348 351
-352 -350
-352 -351
350 351 352
-353 -345
-353 -348
345 348 353
-354 -349
-354 -353
349 353 354
-355 -51
-355 52
51 -52 355
-356 51
-356 -52
-51 52 356
-357 -355
-357 -356
355 356 357
-358 51
-358 52
-51 -52 358
-359 354
-359 -357
-354 357 359
-360 -354
-360 357
354 -357 360
-361 -359
-361 -360
359 360 361
-362 -354
-362 -357
354 357 362
-363 -358
-363 -362
358 362 363
-364 -52
-364 53
52 -53 364
-365 52
-365 -53
-52 53 365
-366 -364
-366 -365
364 365 366
-367 52
-367 53
-52 -53 367
-368 363
-368 -366
-363 366 368
-369 -363
-369 366
363 -366 369
-370 -368
-370 -369
368 369 370
-371 -363
-371 -366
363 366 371
-372 -367
-372 -371
367 371 372
-373 -53
-373 54
53 -54 373
-374 53
-374 -54
-53 54 374
-375 -373
-375 -374
373 374 375
-376 53
-376 54
-53 -54 376
-377 372
-377 -375
-372 375 377
-378 -372
-378 375
372 -375 378
-379 -377
-379 -378
377 378 379
-380 -372
-380 -375
372 375 380
-381 -376
-381 -380
376 380 381
-382 -54
-382 55
54 -55 382
-383 54
-383 -55
-54 55 383
-384 -382
-384 -383
382 383 384
-385 54
-385 55
-54 -55 385
-386 381
-386 -384
-381 384 386
-387 -381
-387 384
381 -384 387
-388 -386
-388 -387
386 387 388
-389 -381
-389 -384
381 384 389
-390 -385
-390 -389
385 389 390
-391 -55
-391 56
55 -56 391
-392 55
-392 -56
-55 56 392
-393 -391
-393 -392
391 392 393
-394 55
-394 56
-55 -56 394
-395 390
-395 -393
-390 393 395
-396 -390
-396 393
390 -393 396
-397 -395
-397 -396
395 396 397
-398 -390
-398 -393
390 393 398
-399 -394
-399 -398
394 398 399
-400 -56
-400 57
56 -57 400
-401 56
-401 -57
-56 57 401
-402 -400
-402 -401
400 401 402
-403 56
-403 57
-56 -57 403
-404 399
-404 -402
-399 402 404
-405 -399
-405 402
399 -402 405
-406 -404
-406 -405
404 405 406
-407 -399
-407 -402
399 402 407
-408 -403
-408 -407
403 407 408
-409 -57
-409 58
57 -58 409
-410 57
-410 -58
-57 58 410
-411 -409
-411 -410
409 410 411
-412 57
-412 58
-57 -58 412
-413 408
-413 -411
-408 411 413
-414 -408
-414 411
408 -411 414
-415 -413
-415 -414
413 414 415
-416 -408
-416 -411
408 411 416
-417 -412
-417 -416
412 416 417
-418 22
-418 -100
-22 100 418
-419 -22
-419 24
22 -24 419
-420 -418
-420 -419
418 419 420
-421 22
-421 -109
-22 109 421
-422 -22
-422 25
22 -25 422
-423 -421
-423 -422
421 422 423
-424 22
-424 -118
-22 118 424
-425 -22
-425 26
22 -26 425
-426 -424
-426 -425
424 425 426
-427 22
-427 -127
-22 127 427
-428 -22
-428 27
22 -27 428
-429 -427
-429 -428
427 428 429
-430 22
-430 -136
-22 136 430
-431 -22
-431 28
22 -28 431
-432 -430
-432 -431
430 431 432
-433 22
-433 -145
-22 145 433
-434 -22
-434 29
22 -29 434
-435 -433
-435 -434
433 434 435
-436 22
-436 -154
-22 154 436
-437 -22
-437 30
22 -30 437
-438 -436
-438 -437
436 437 438
-439 22
-439 -163
-22 163 439
-440 -22
-440 31
22 -31 440
-441 -439
-441 -440
439 440 441
-442 22
-442 -172
-22 172 442
-443 -22
-443 32
22 -32 443
-444 -442
-444 -443
442 443 444
-445 22
-445 -181
-22 181 445
-446 -22
-446 33
22 -33 446
-447 -445
-447 -446
445 446 447
-448 22
-448 -190
-22 190 448
-449 -22
-449 34
22 -34 449
-450 -448
-450 -449
448 449 450
-451 22
-451 -199
-22 199 451
-452 -22
-452 35
22 -35 452
-453 -451
-453 -452
451 452 453
-454 22
-454 -208
-22 208 454
-455 -22
-455 36
22 -36 455
-456 -454
-456 -455
454 455 456
-457 22
-457 -217
-22 217 457
-458 -22
-458 37
22 -37 458
-459 -457
-459 -458
457 458 459
-460 22
-460 -226
-22 226 460
-461 -22
-461 38
22 -38 461
-462 -460
-462 -461
460 461 462
-463 22
-463 -235
-22 235 463
-464 -22
-464 39
22 -39 464
-465 -463
-465 -464
463 464 465
-466 22
-466 -244
-22 244 466
-467 -22
-467 40
22 -40 467
-468 -466
-468 -467
466 467 468
-469 22
-469 -253
-22 253 469
-470 -22
-470 41
22 -41 470
-471 -469
-471 -470
469 470 471
-472 22
-472 -262
-22 262 472
-473 -22
-473 42
22 -42 473
-474 -472
-474 -473
472 473 474
-475 22
-475 -271
-22 271 475
-476 -22
-476 43
22 -43 476
-477 -475
-477 -476
475 476 477
-478 22
-478 -280
-22 280 478
-479 -22
-479 44
22 -44 479
-480 -478
-480 -479
478 479 480
-481 22
-481 -289
-22 289 481
-482 -22
-482 45
22 -45 482
-483 -481
-483 -482
481 482 483
-484 22
-484 -298
-22 298 484
-485 -22
-485 46
22 -46 485
-486 -484
-486 -485
484 485 486
-487 22
-487 -307
-22 307 487
-488 -22
-488 47
22 -47 488
-489 -487
-489 -488
487 488 489
-490 22
-490 -316
-22 316 490
-491 -22
-491 48
22 -48 491
-492 -490
-492 -491
490 491 492
-493 22
-493 -325
-22 325 493
-494 -22
-494 49
22 -49 494
-495 -493
-495 -494
493 494 495
-496 22
-496 -334
-22 334 496
-497 -22
-497 50
22 -50 497
-498 -496
-498 -497
496 497 498
-499 22
-499 -343
-22 343 499
-500 -22
-500 51
22 -51 500
-501 -499
-501 -500
499 500 501
-502 22
-502 -352
-22 352 502
-503 -22
-503 52
22 -52 503
-504 -502
-504 -503
502 503 504
-505 22
-505 -361
-22 361 505
-506 -22
-506 53
22 -53 506
-507 -505
-507 -506
505 506 507
-508 22
-508 -370
-22 370 508
-509 -22
-509 54
22 -54 509
-510 -508
-510 -509
508 509 510
-511 22
-511 -379
-22 379 511
-512 -22
-512 55
22 -55 512
-513 -511
-513 -512
511 512 513
-514 22
-514 -388
-22 388 514
-515 -22
-515 56
22 -56 515
-516 -514
-516 -515
514 515 516
-517 22
-517 -397
-22 397 517
-518 -22
-518 57
22 -57 518
-519 -517
-519 -518
517 518 519
-520 22
-520 -406
-22 406 520
-521 -22
-521 58
22 -58 521
-522 -520
-522 -521
520 521 522
-523 22
-523 -415
-22 415 523
-524 1
-524 93
-1 -93 524
-525 -93
-525 94
93 -94 525
-526 -524
-526 -525
524 525 526
-527 2
-527 93
-2 -93 527
-528 -93
-528 -420
93 420 528
-529 -527
-529 -528
527 528 529
-530 3
-530 93
-3 -93 530
-531 -93
-531 -423
93 423 531
-532 -530
-532 -531
530 531 532
-533 4
-533 93
-4 -93 533
-534 -93
-534 -426
93 426 534
-535 -533
-535 -534
533 534 535
-536 5
-536 93
-5 -93 536
-537 -93
-537 -429
93 429 537
-538 -536
-538 -537
536 537 538
-539 6
-539 93
-6 -93 539
-540 -93
-540 -432
93 432 540
-541 -539
-541 -540
539 540 541
-542 7
-542 93
-7 -93 542
-543 -93
-543 -435
93 435 543
-544 -542
-544 -543
542 543 544
-545 8
-545 93
-8 -93 545
-546 -93
-546 -438
93 438 546
-547 -545
-547 -546
545 546 547
-548 9
-548 93
-9 -93 548
-549 -93
-549 -441
93 441 549
-550 -548
-550 -549
548 549 550
-551 10
-551 93
-10 -93 551
-552 -93
-552 -444
93 444 552
-553 -551
-553 -552
551 552 553
-554 11
-554 93
-11 -93 554
-555 -93
-555 -447
93 447 555
-556 -554
-556 -555
554 555 556
-557 12
-557 93
-12 -93 557
-558 -93
-558 -450
93 450 558
-559 -557
-559 -558
557 558 559
-560 13
-560 93
-13 -93 560
-561 -93
-561 -453
93 453 561
-562 -560
-562 -561
560 561 562
-563 14
-563 93
-14 -93 563
-564 -93
-564 -456
93 456 564
-565 -563
-565 -564
563 564 565
-566 15
-566 93
-15 -93 566
-567 -93
-567 -459
93 459 567
-568 -566
-568 -567
566 567 568
-569 16
-569 93
-16 -93 569
-570 -93
-570 -462
93 462 570
-571 -569
-571 -570
569 570 571
-572 17
-572 93
-17 -93 572
-573 -93
-573 -465
93 465 573
-574 -572
-574 -573
572 573 574
-575 18
-575 93
-18 -93 575
-576 -93
-576 -468
93 468 576
-577 -575
-577 -576
575 576 577
-578 19
-578 93
-19 -93 578
-579 -93
-579 -471
93 471 579
-580 -578
-580 -579
578 579 580
-581 20
-581 93
-20 -93 581
-582 -93
-582 -474
93 474 582
-583 -581
-583 -582
581 582 583
-584 21
-584 93
-21 -93 584
-585 -93
-585 -477
93 477 585
-586 -584
-586 -585
584 585 586
-587 -93
-587 -480
93 480 587
-588 -93
-588 -483
93 483 588
-589 -93
-589 -486
93 486 589
-590 -93
-590 -489
93 489 590
-591 -93
-591 -492
93 492 591
-592 -93
-592 -495
93 495 592
-593 -93
-593 -498
93 498 593
-594 -93
-594 -501
93 501 594
-595 -93
-595 -504
93 504 595
-596 -93
-596 -507
93 507 596
-597 -93
-597 -510
93 510 597
-598 -93
-598 -513
93 513 598
-599 -93
-599 -516
93 516 599
-600 -93
-600 -519
93 519 600
-601 -93
-601 -522
93 522 601
-602 -93
-602 523
93 -523 602
-603 -58
-603 417
58 -417 603
-604 22
-604 -603
-22 603 604
604
